NAME: minipoints.out
COMMENT: Length 31
TYPE : TOUR
DIMENSION : 8
TOUR_SECTION
((1.0, 1.0), (0.0, 9.0))
((3.0, 8.0), (0.0, 9.0))
((3.0, 8.0), (6.0, 6.0))
((4.0, 0.0), (1.0, 1.0))
((4.0, 0.0), (5.0, 1.0))
((5.0, 1.0), (7.0, 3.0))
((6.0, 6.0), (10.0, 7.0))
((7.0, 3.0), (10.0, 7.0))
[((1.0, 1.0), (0.0, 9.0)), ((3.0, 8.0), (0.0, 9.0)), ((3.0, 8.0), (6.0, 6.0)), ((4.0, 0.0), (1.0, 1.0)), ((4.0, 0.0), (5.0, 1.0)), ((5.0, 1.0), (7.0, 3.0)), ((6.0, 6.0), (10.0, 7.0)), ((7.0, 3.0), (10.0, 7.0))]
EOF